11111111111111111111
11111111111111111111
11111100000000111111
11111100000000111111
11111100000000111111
11111100000000111111
11111100000000111111
11111111111111111111
11111111111111111111
11111111111111111111
11111111111111111111
11111111111111111111
11111111111111111111
11111111111111111111
11111111111111111111
11111111111111111111
9 4
8
0 1 13 10
1 0 5 9
2 0 2 12
3 3 9 8
4 0 7 11
5 1 16 9
6 1 1 9
7 0 15 12